NAME enlight9
ROWS
 N  OBJ
 E  R0      
 E  R1      
 E  R2      
 E  R3      
 E  R4      
 E  R5      
 E  R6      
 E  R7      
 E  R8      
 E  R9      
 E  R10     
 E  R11     
 E  R12     
 E  R13     
 E  R14     
 E  R15     
 E  R16     
 E  R17     
 E  R18     
 E  R19     
 E  R20     
 E  R21     
 E  R22     
 E  R23     
 E  R24     
 E  R25     
 E  R26     
 E  R27     
 E  R28     
 E  R29     
 E  R30     
 E  R31     
 E  R32     
 E  R33     
 E  R34     
 E  R35     
 E  R36     
 E  R37     
 E  R38     
 E  R39     
 E  R40     
 E  R41     
 E  R42     
 E  R43     
 E  R44     
 E  R45     
 E  R46     
 E  R47     
 E  R48     
 E  R49     
 E  R50     
 E  R51     
 E  R52     
 E  R53     
 E  R54     
 E  R55     
 E  R56     
 E  R57     
 E  R58     
 E  R59     
 E  R60     
 E  R61     
 E  R62     
 E  R63     
 E  R64     
 E  R65     
 E  R66     
 E  R67     
 E  R68     
 E  R69     
 E  R70     
 E  R71     
 E  R72     
 E  R73     
 E  R74     
 E  R75     
 E  R76     
 E  R77     
 E  R78     
 E  R79     
 E  R80     
COLUMNS
    C0        OBJ       1
    C0        R49       1
    C0        R63       1
    C0        R77       1
    C1        OBJ       1
    C1        R0        1
    C1        R49       1
    C1        R50       1
    C1        R77       1
    C2        OBJ       1
    C2        R1        1
    C2        R49       1
    C2        R50       1
    C2        R51       1
    C3        OBJ       1
    C3        R2        1
    C3        R50       1
    C3        R51       1
    C3        R52       1
    C4        OBJ       1
    C4        R3        1
    C4        R51       1
    C4        R52       1
    C4        R53       1
    C5        OBJ       1
    C5        R4        1
    C5        R52       1
    C5        R53       1
    C5        R54       1
    C6        OBJ       1
    C6        R5        1
    C6        R53       1
    C6        R54       1
    C6        R55       1
    C7        OBJ       1
    C7        R6        1
    C7        R54       1
    C7        R55       1
    C7        R79       1
    C8        OBJ       1
    C8        R55       1
    C8        R70       1
    C8        R79       1
    C9        OBJ       1
    C9        R0        1
    C9        R63       1
    C9        R64       1
    C9        R77       1
    C10       OBJ       1
    C10       R0        1
    C10       R1        1
    C10       R7        1
    C10       R49       1
    C10       R63       1
    C11       OBJ       1
    C11       R0        1
    C11       R1        1
    C11       R2        1
    C11       R8        1
    C11       R50       1
    C12       OBJ       1
    C12       R1        1
    C12       R2        1
    C12       R3        1
    C12       R9        1
    C12       R51       1
    C13       OBJ       1
    C13       R2        1
    C13       R3        1
    C13       R4        1
    C13       R10       1
    C13       R52       1
    C14       OBJ       1
    C14       R3        1
    C14       R4        1
    C14       R5        1
    C14       R11       1
    C14       R53       1
    C15       OBJ       1
    C15       R4        1
    C15       R5        1
    C15       R6        1
    C15       R12       1
    C15       R54       1
    C16       OBJ       1
    C16       R5        1
    C16       R6        1
    C16       R13       1
    C16       R55       1
    C16       R70       1
    C17       OBJ       1
    C17       R6        1
    C17       R70       1
    C17       R71       1
    C17       R79       1
    C18       OBJ       1
    C18       R7        1
    C18       R63       1
    C18       R64       1
    C18       R65       1
    C19       OBJ       1
    C19       R0        1
    C19       R7        1
    C19       R8        1
    C19       R14       1
    C19       R64       1
    C20       OBJ       1
    C20       R1        1
    C20       R7        1
    C20       R8        1
    C20       R9        1
    C20       R15       1
    C21       OBJ       1
    C21       R2        1
    C21       R8        1
    C21       R9        1
    C21       R10       1
    C21       R16       1
    C22       OBJ       1
    C22       R3        1
    C22       R9        1
    C22       R10       1
    C22       R11       1
    C22       R17       1
    C23       OBJ       1
    C23       R4        1
    C23       R10       1
    C23       R11       1
    C23       R12       1
    C23       R18       1
    C24       OBJ       1
    C24       R5        1
    C24       R11       1
    C24       R12       1
    C24       R13       1
    C24       R19       1
    C25       OBJ       1
    C25       R6        1
    C25       R12       1
    C25       R13       1
    C25       R20       1
    C25       R71       1
    C26       OBJ       1
    C26       R13       1
    C26       R70       1
    C26       R71       1
    C26       R72       1
    C27       OBJ       1
    C27       R14       1
    C27       R64       1
    C27       R65       1
    C27       R66       1
    C28       OBJ       1
    C28       R7        1
    C28       R14       1
    C28       R15       1
    C28       R21       1
    C28       R65       1
    C29       OBJ       1
    C29       R8        1
    C29       R14       1
    C29       R15       1
    C29       R16       1
    C29       R22       1
    C30       OBJ       1
    C30       R9        1
    C30       R15       1
    C30       R16       1
    C30       R17       1
    C30       R23       1
    C31       OBJ       1
    C31       R10       1
    C31       R16       1
    C31       R17       1
    C31       R18       1
    C31       R24       1
    C32       OBJ       1
    C32       R11       1
    C32       R17       1
    C32       R18       1
    C32       R19       1
    C32       R25       1
    C33       OBJ       1
    C33       R12       1
    C33       R18       1
    C33       R19       1
    C33       R20       1
    C33       R26       1
    C34       OBJ       1
    C34       R13       1
    C34       R19       1
    C34       R20       1
    C34       R27       1
    C34       R72       1
    C35       OBJ       1
    C35       R20       1
    C35       R71       1
    C35       R72       1
    C35       R73       1
    C36       OBJ       1
    C36       R21       1
    C36       R65       1
    C36       R66       1
    C36       R67       1
    C37       OBJ       1
    C37       R14       1
    C37       R21       1
    C37       R22       1
    C37       R28       1
    C37       R66       1
    C38       OBJ       1
    C38       R15       1
    C38       R21       1
    C38       R22       1
    C38       R23       1
    C38       R29       1
    C39       OBJ       1
    C39       R16       1
    C39       R22       1
    C39       R23       1
    C39       R24       1
    C39       R30       1
    C40       OBJ       1
    C40       R17       1
    C40       R23       1
    C40       R24       1
    C40       R25       1
    C40       R31       1
    C41       OBJ       1
    C41       R18       1
    C41       R24       1
    C41       R25       1
    C41       R26       1
    C41       R32       1
    C42       OBJ       1
    C42       R19       1
    C42       R25       1
    C42       R26       1
    C42       R27       1
    C42       R33       1
    C43       OBJ       1
    C43       R20       1
    C43       R26       1
    C43       R27       1
    C43       R34       1
    C43       R73       1
    C44       OBJ       1
    C44       R27       1
    C44       R72       1
    C44       R73       1
    C44       R74       1
    C45       OBJ       1
    C45       R28       1
    C45       R66       1
    C45       R67       1
    C45       R68       1
    C46       OBJ       1
    C46       R21       1
    C46       R28       1
    C46       R29       1
    C46       R35       1
    C46       R67       1
    C47       OBJ       1
    C47       R22       1
    C47       R28       1
    C47       R29       1
    C47       R30       1
    C47       R36       1
    C48       OBJ       1
    C48       R23       1
    C48       R29       1
    C48       R30       1
    C48       R31       1
    C48       R37       1
    C49       OBJ       1
    C49       R24       1
    C49       R30       1
    C49       R31       1
    C49       R32       1
    C49       R38       1
    C50       OBJ       1
    C50       R25       1
    C50       R31       1
    C50       R32       1
    C50       R33       1
    C50       R39       1
    C51       OBJ       1
    C51       R26       1
    C51       R32       1
    C51       R33       1
    C51       R34       1
    C51       R40       1
    C52       OBJ       1
    C52       R27       1
    C52       R33       1
    C52       R34       1
    C52       R41       1
    C52       R74       1
    C53       OBJ       1
    C53       R34       1
    C53       R73       1
    C53       R74       1
    C53       R75       1
    C54       OBJ       1
    C54       R35       1
    C54       R67       1
    C54       R68       1
    C54       R69       1
    C55       OBJ       1
    C55       R28       1
    C55       R35       1
    C55       R36       1
    C55       R42       1
    C55       R68       1
    C56       OBJ       1
    C56       R29       1
    C56       R35       1
    C56       R36       1
    C56       R37       1
    C56       R43       1
    C57       OBJ       1
    C57       R30       1
    C57       R36       1
    C57       R37       1
    C57       R38       1
    C57       R44       1
    C58       OBJ       1
    C58       R31       1
    C58       R37       1
    C58       R38       1
    C58       R39       1
    C58       R45       1
    C59       OBJ       1
    C59       R32       1
    C59       R38       1
    C59       R39       1
    C59       R40       1
    C59       R46       1
    C60       OBJ       1
    C60       R33       1
    C60       R39       1
    C60       R40       1
    C60       R41       1
    C60       R47       1
    C61       OBJ       1
    C61       R34       1
    C61       R40       1
    C61       R41       1
    C61       R48       1
    C61       R75       1
    C62       OBJ       1
    C62       R41       1
    C62       R74       1
    C62       R75       1
    C62       R76       1
    C63       OBJ       1
    C63       R42       1
    C63       R68       1
    C63       R69       1
    C63       R78       1
    C64       OBJ       1
    C64       R35       1
    C64       R42       1
    C64       R43       1
    C64       R56       1
    C64       R69       1
    C65       OBJ       1
    C65       R36       1
    C65       R42       1
    C65       R43       1
    C65       R44       1
    C65       R57       1
    C66       OBJ       1
    C66       R37       1
    C66       R43       1
    C66       R44       1
    C66       R45       1
    C66       R58       1
    C67       OBJ       1
    C67       R38       1
    C67       R44       1
    C67       R45       1
    C67       R46       1
    C67       R59       1
    C68       OBJ       1
    C68       R39       1
    C68       R45       1
    C68       R46       1
    C68       R47       1
    C68       R60       1
    C69       OBJ       1
    C69       R40       1
    C69       R46       1
    C69       R47       1
    C69       R48       1
    C69       R61       1
    C70       OBJ       1
    C70       R41       1
    C70       R47       1
    C70       R48       1
    C70       R62       1
    C70       R76       1
    C71       OBJ       1
    C71       R48       1
    C71       R75       1
    C71       R76       1
    C71       R80       1
    C72       OBJ       1
    C72       R56       1
    C72       R69       1
    C72       R78       1
    C73       OBJ       1
    C73       R42       1
    C73       R56       1
    C73       R57       1
    C73       R78       1
    C74       OBJ       1
    C74       R43       1
    C74       R56       1
    C74       R57       1
    C74       R58       1
    C75       OBJ       1
    C75       R44       1
    C75       R57       1
    C75       R58       1
    C75       R59       1
    C76       OBJ       1
    C76       R45       1
    C76       R58       1
    C76       R59       1
    C76       R60       1
    C77       OBJ       1
    C77       R46       1
    C77       R59       1
    C77       R60       1
    C77       R61       1
    C78       OBJ       1
    C78       R47       1
    C78       R60       1
    C78       R61       1
    C78       R62       1
    C79       OBJ       1
    C79       R48       1
    C79       R61       1
    C79       R62       1
    C79       R80       1
    C80       OBJ       1
    C80       R62       1
    C80       R76       1
    C80       R80       1
    C81       R0        -2
    C82       R1        -2
    C83       R2        -2
    C84       R3        -2
    C85       R4        -2
    C86       R5        -2
    C87       R6        -2
    C88       R7        -2
    C89       R8        -2
    C90       R9        -2
    C91       R10       -2
    C92       R11       -2
    C93       R12       -2
    C94       R13       -2
    C95       R14       -2
    C96       R15       -2
    C97       R16       -2
    C98       R17       -2
    C99       R18       -2
    C100      R19       -2
    C101      R20       -2
    C102      R21       -2
    C103      R22       -2
    C104      R23       -2
    C105      R24       -2
    C106      R25       -2
    C107      R26       -2
    C108      R27       -2
    C109      R28       -2
    C110      R29       -2
    C111      R30       -2
    C112      R31       -2
    C113      R32       -2
    C114      R33       -2
    C115      R34       -2
    C116      R35       -2
    C117      R36       -2
    C118      R37       -2
    C119      R38       -2
    C120      R39       -2
    C121      R40       -2
    C122      R41       -2
    C123      R42       -2
    C124      R43       -2
    C125      R44       -2
    C126      R45       -2
    C127      R46       -2
    C128      R47       -2
    C129      R48       -2
    C130      R49       -2
    C131      R50       -2
    C132      R51       -2
    C133      R52       -2
    C134      R53       -2
    C135      R54       -2
    C136      R55       -2
    C137      R56       -2
    C138      R57       -2
    C139      R58       -2
    C140      R59       -2
    C141      R60       -2
    C142      R61       -2
    C143      R62       -2
    C144      R63       -2
    C145      R64       -2
    C146      R65       -2
    C147      R66       -2
    C148      R67       -2
    C149      R68       -2
    C150      R69       -2
    C151      R70       -2
    C152      R71       -2
    C153      R72       -2
    C154      R73       -2
    C155      R74       -2
    C156      R75       -2
    C157      R76       -2
    C158      R77       -2
    C159      R78       -2
    C160      R79       -2
    C161      R80       -2
RHS
    RHS1      R77       -1
BOUNDS
 UP BND1      C0        1
 UP BND1      C1        1
 UP BND1      C2        1
 UP BND1      C3        1
 UP BND1      C4        1
 UP BND1      C5        1
 UP BND1      C6        1
 UP BND1      C7        1
 UP BND1      C8        1
 UP BND1      C9        1
 UP BND1      C10       1
 UP BND1      C11       1
 UP BND1      C12       1
 UP BND1      C13       1
 UP BND1      C14       1
 UP BND1      C15       1
 UP BND1      C16       1
 UP BND1      C17       1
 UP BND1      C18       1
 UP BND1      C19       1
 UP BND1      C20       1
 UP BND1      C21       1
 UP BND1      C22       1
 UP BND1      C23       1
 UP BND1      C24       1
 UP BND1      C25       1
 UP BND1      C26       1
 UP BND1      C27       1
 UP BND1      C28       1
 UP BND1      C29       1
 UP BND1      C30       1
 UP BND1      C31       1
 UP BND1      C32       1
 UP BND1      C33       1
 UP BND1      C34       1
 UP BND1      C35       1
 UP BND1      C36       1
 UP BND1      C37       1
 UP BND1      C38       1
 UP BND1      C39       1
 UP BND1      C40       1
 UP BND1      C41       1
 UP BND1      C42       1
 UP BND1      C43       1
 UP BND1      C44       1
 UP BND1      C45       1
 UP BND1      C46       1
 UP BND1      C47       1
 UP BND1      C48       1
 UP BND1      C49       1
 UP BND1      C50       1
 UP BND1      C51       1
 UP BND1      C52       1
 UP BND1      C53       1
 UP BND1      C54       1
 UP BND1      C55       1
 UP BND1      C56       1
 UP BND1      C57       1
 UP BND1      C58       1
 UP BND1      C59       1
 UP BND1      C60       1
 UP BND1      C61       1
 UP BND1      C62       1
 UP BND1      C63       1
 UP BND1      C64       1
 UP BND1      C65       1
 UP BND1      C66       1
 UP BND1      C67       1
 UP BND1      C68       1
 UP BND1      C69       1
 UP BND1      C70       1
 UP BND1      C71       1
 UP BND1      C72       1
 UP BND1      C73       1
 UP BND1      C74       1
 UP BND1      C75       1
 UP BND1      C76       1
 UP BND1      C77       1
 UP BND1      C78       1
 UP BND1      C79       1
 UP BND1      C80       1
ENDATA
